param N:= 4;
param M:= 150;

param nu := 1.0;

param X : 1 2 3 4:=
1 0.223 0.217 0.448 0.493
2 0.474 0.475 0.034 0.954
3 0.154 0.261 0.19 0.361
4 0.167 0.084 0.59 0.961
5 0.778 0.497 0.792 0.945
6 0.505 0.828 0.897 0.737
7 0.842 0.96 0.461 0.289
8 0.031 0.763 0.927 0.064
9 0.886 0.218 0.978 0.076
10 0.601 0.243 0.663 0.19
11 0.872 0.969 0.701 0.665
12 0.14 0.169 0.742 0.038
13 0.986 0.879 0.866 0.447
14 0.318 0.478 0.931 0.246
15 0.648 0.132 0.76 0.626
16 0.339 0.227 0.45 0.002
17 0.654 0.874 0.386 0.355
18 0.299 0.495 0.708 0.041
19 0.614 0.027 0.412 0.48
20 0.581 0.798 0.951 0.512
21 0.493 0.16 0.176 0.253
22 0.384 0.592 0.013 0.834
23 0.43 0.488 0.468 0.815
24 0.007 0.114 0.337 0.715
25 0.87 0.329 0.182 0.282
26 0.655 0.863 0.608 0.607
27 0.652 0.1 0.535 0.828
28 0.321 0.212 0.946 0.334
29 0.54 0.764 0.533 0.008
30 0.376 0.016 0.693 0.713
31 0.849 0.583 0.06 0.03
32 0.869 0.686 0.729 0.477
33 0.103 0.129 0.392 0.638
34 0.746 0.959 0.169 0.692
35 0.215 0.232 0.056 0.748
36 0.635 0.124 0.256 0.329
37 0.986 0.177 0.42 0.046
38 0.286 0.915 0.893 0.014
39 0.185 0.118 0.521 0.578
40 0.478 0.324 0.715 0.647
41 0.008 0.862 0.247 0.065
42 0.487 0.7 0.734 0.743
43 0.571 0.73 0.206 0.992
44 0.414 0.277 0.692 0.307
45 0.084 0.492 0.41 0.605
46 0.166 0.083 0.394 0.881
47 0.409 0.889 0.592 0.656
48 0.203 0.144 0.654 0.937
49 0.683 0.508 0.617 0.889
50 0.393 0.303 0.777 0.084
51 0.069 0.168 0.103 0.479
52 0.173 0.645 0.857 0.566
53 0.587 0.976 0.415 0.18
54 0.369 0.382 0.776 0.023
55 0.663 0.706 0.827 0.28
56 0.327 0.673 0.899 0.104
57 0.509 0.172 0.925 0.611
58 0.699 0.784 0.296 0.555
59 0.821 0.143 0.326 0.237
60 0.958 0.606 0.704 0.734
61 0.023 0.397 0.335 0.85
62 0.93 0.177 0.349 0.829
63 0.106 0.338 0.453 0.031
64 0.104 0.73 0.733 0.4
65 0.084 0.221 0.428 0.41
66 0.75 0.368 0.063 0.455
67 0.692 0.478 0.498 0.027
68 0.175 0.957 0.506 0.524
69 0.786 0.63 0.124 0.239
70 0.073 0.343 0.392 0.806
71 0.677 0.89 0.964 0.106
72 0.421 0.856 0.668 0.485
73 0.77 0.177 0.789 0.268
74 0.118 0.443 0.16 0.623
75 0.946 0.41 0.597 0.07
76 0.258 0.143 0.992 0.65
77 0.735 0.327 0.839 0.699
78 0.139 0.12 0.289 0.807
79 0.6 0.577 0.782 0.389
80 0.985 0.507 0.289 0.145
81 0.256 0.091 0.54 0.853
82 0.189 0.111 0.304 0.181
83 0.252 0.916 0.088 0.091
84 0.521 0.231 0.734 0.81
85 0.339 0.409 0.615 0.121
86 0.461 0.106 0.305 0.75
87 0.435 0.006 0.342 0.975
88 0.503 0.163 0.969 0.807
89 0.73 0.06 0.26 0.817
90 0.874 0.338 0.382 0.608
91 0.42 0.947 0.557 0.035
92 0.355 0.496 0.174 0.66
93 0.425 0.095 0.252 0.767
94 0.11 0.27 0.233 0.079
95 0.577 0.808 0.137 0.836
96 0.288 0.71 0.964 0.67
97 0.111 0.09 0.266 0.668
98 0.334 0.024 0.621 0.507
99 0.867 0.932 0.779 0.118
100 0.848 0.228 0.969 0.081
101 0.046 0.658 0.115 0.183
102 0.741 0.471 0.205 0.705
103 0.523 0.816 0.231 0.789
104 0.355 0.122 0.508 0.976
105 0.192 0.843 0.561 0.97
106 0.26 0.819 0.189 0.229
107 0.496 0.275 0.558 0.611
108 0.053 0.352 0.93 0.258
109 0.071 0.781 0.873 0.301
110 0.357 0.657 0.692 0.866
111 0.322 0.057 0.476 0.883
112 0.437 0.143 0.846 0.626
113 0.746 0.123 0.647 0.304
114 0.105 0.357 0.086 0.035
115 0.143 0.106 0.396 0.016
116 0.966 0.374 0.063 0.658
117 0.696 0.98 0.297 0.172
118 0.324 0.609 0.006 0.171
119 0.378 0.917 0.358 0.025
120 0.092 0.13 0.579 0.179
121 0.194 0.322 0.27 0.59
122 0.677 0.556 0.712 0.741
123 0.951 0.437 0.194 0.248
124 0.057 0.572 0.218 0.063
125 0.453 0.441 0.66 0.812
126 0.881 0.904 0.596 0.459
127 0.76 0.653 0.404 0.031
128 0.743 0.708 0.799 0.454
129 0.014 0.406 0.886 0.208
130 0.495 0.265 0.226 0.713
131 0.969 0.166 0.77 0.628
132 0.235 0.509 0.881 0.831
133 0.964 0.591 0.621 0.368
134 0.864 0.111 0.331 0.663
135 0.78 0.677 0.971 0.666
136 0.625 0.16 0.15 0.85
137 0.479 0.819 0.039 0.249
138 0.017 0.484 0.956 0.898
139 0.924 0.862 0.906 0.545
140 0.528 0.409 0.341 0.859
141 0.906 0.638 0.75 0.877
142 0.635 0.501 0.464 0.785
143 0.338 0.264 0.171 0.377
144 0.618 0.393 0.997 0.574
145 0.311 0.499 0.154 0.217
146 0.384 0.746 0.454 0.724
147 0.526 0.63 0.243 0.276
148 0.547 0.911 0.009 0.011
149 0.36 0.349 0.96 0.531
150 0.473 0.149 0.119 0.47
;

param y :=
1 -1.0
2 1.0
3 -1.0
4 -1.0
5 1.0
6 1.0
7 1.0
8 -1.0
9 1.0
10 -1.0
11 1.0
12 -1.0
13 1.0
14 -1.0
15 1.0
16 -1.0
17 1.0
18 -1.0
19 -1.0
20 1.0
21 -1.0
22 -1.0
23 1.0
24 -1.0
25 -1.0
26 1.0
27 1.0
28 -1.0
29 -1.0
30 -1.0
31 -1.0
32 1.0
33 1.0
34 1.0
35 -1.0
36 -1.0
37 -1.0
38 1.0
39 -1.0
40 1.0
41 -1.0
42 1.0
43 1.0
44 -1.0
45 -1.0
46 -1.0
47 -1.0
48 -1.0
49 1.0
50 -1.0
51 -1.0
52 1.0
53 1.0
54 -1.0
55 1.0
56 1.0
57 1.0
58 1.0
59 -1.0
60 1.0
61 -1.0
62 1.0
63 -1.0
64 -1.0
65 -1.0
66 -1.0
67 -1.0
68 1.0
69 -1.0
70 -1.0
71 1.0
72 1.0
73 1.0
74 1.0
75 1.0
76 1.0
77 1.0
78 -1.0
79 1.0
80 -1.0
81 -1.0
82 -1.0
83 -1.0
84 1.0
85 -1.0
86 -1.0
87 -1.0
88 1.0
89 -1.0
90 1.0
91 -1.0
92 -1.0
93 -1.0
94 -1.0
95 1.0
96 1.0
97 -1.0
98 -1.0
99 1.0
100 1.0
101 -1.0
102 1.0
103 1.0
104 -1.0
105 -1.0
106 -1.0
107 -1.0
108 -1.0
109 1.0
110 1.0
111 -1.0
112 1.0
113 -1.0
114 -1.0
115 -1.0
116 1.0
117 1.0
118 -1.0
119 -1.0
120 -1.0
121 -1.0
122 1.0
123 -1.0
124 -1.0
125 1.0
126 1.0
127 -1.0
128 1.0
129 -1.0
130 -1.0
131 -1.0
132 -1.0
133 1.0
134 -1.0
135 1.0
136 -1.0
137 -1.0
138 1.0
139 1.0
140 1.0
141 1.0
142 1.0
143 -1.0
144 1.0
145 -1.0
146 1.0
147 -1.0
148 -1.0
149 1.0
150 -1.0
;

